DATASET = "thpack5";
INSTANCE = "020";

WIDTH = 233;
HEIGHT = 220;
LENGTH = 587;

NO_OF_SHAPES = 12;
size = [|
  97,77,66 |
  81,69,69 |
  109,53,24 |
  98,33,20 |
  86,56,34 |
  76,50,35 |
  109,42,22 |
  82,69,42 |
  58,43,31 |
  99,80,48 |
  89,68,39 |
  74,53,40 |
|];

verticality = [|
  1,1,1 |
  1,1,1 |
  0,0,1 |
  0,1,1 |
  0,1,1 |
  0,1,1 |
  0,1,1 |
  1,1,1 |
  1,1,1 |
  0,1,1 |
  0,1,1 |
  1,1,1 |
|];

box_count = [
  10,
  16,
  14,
  8,
  12,
  12,
  11,
  12,
  11,
  8,
  13,
  11,
];
